4 
5  17 32 47 
6  02 17 32 47 
7  02 17 32 47 
8  02 17 32 47 
9  02 17 32 46 
10  01 16 31 46 
11  01 16 31 46 
12  01 16 31 46 
13  00 16 31 46 
14  01 16 31 46 
15  03 18 33 48 
16  03 18 33 48 
17  03 18 33 48 
18  03 18 33 48 
19  03 17 32 47 
20  02 17 32 47 
21  02 17 32 47 
22  02 19 34 49 
23  06 
0 
